(set-info :Origin "This instance was generated by: BanditFuzz-- an RL fuzzer for SMT solvers" )
(set-info :Author "Joe Scott, Fed Mora, Vijay Ganesh" )
(set-info :Contact "Joe Scott, joseph.scott@uwaterloo.ca")
(set-logic QF_BV)
(declare-const bool_0 Bool)
(declare-const bool_1 Bool)
(declare-const bool_2 Bool)
(declare-const bool_3 Bool)
(declare-const bool_4 Bool)
(declare-const bv_0 (_ BitVec 32))
(declare-const bv_1 (_ BitVec 32))
(declare-const bv_2 (_ BitVec 32))
(declare-const bv_3 (_ BitVec 32))
(declare-const bv_4 (_ BitVec 32))
(assert (bvuge (bvsdiv (bvshl #xdbed54e8  bv_4) (bvmul bv_1 bv_4)) (bvurem (bvurem #x1cd0cd4e  bv_1) (bvurem #xe294083a  #xfc862cee ))))
(assert (bvuge (bvsdiv (bvsmod #xf9a2f927  #xc8c4362d ) (bvashr #xaf689489  bv_1)) (bvsub (bvmul bv_4 bv_1) (bvxnor bv_0 bv_1))))
(assert (=> (bvult (bvudiv #xbb064905  bv_2) (bvnor bv_2 #x877df273 )) (and (bvuge bv_1 bv_0) (bvugt bv_3 #xa1b94b6d ))))
(assert (bvuge (bvsrem (bvudiv #xcb1df826  #x956e4c64 ) (bvmul bv_3 bv_3)) (bvshl (bvlshr #x188f5799  #x62fb6640 ) (bvashr #x776dae2b  #x2e389d1c ))))
(assert (bvugt (bvsmod (bvor #x7bff1ad0  #xc76ca195 ) (bvudiv #x9e4310a3  bv_2)) (bvmul (bvsrem bv_0 bv_3) (bvmul bv_2 bv_4))))
(check-sat)
(exit)
